NAME : global
TYPE : ATSP
DIMENSION : 11
EDGE_WEIGHT_TYPE : EXPLICIT
EDGE_WEIGHT_FORMAT : FULL_MATRIX
EDGE_WEIGHT_SECTION
0 4975 1472 3759 3709 5137 5899 3001 3124 4838 6136 
0 0 4077 5238 6670 3959 6330 2139 2914 3064 2832 
0 4077 0 2644 3083 3992 4790 2178 1783 3758 5054 
0 5238 2644 0 2146 2883 2249 4115 2376 3376 4826 
0 6670 3083 2146 0 5016 3884 5024 3847 5402 6841 
0 3959 3992 2883 5016 0 2775 4119 2478 1009 2214 
0 6330 4790 2249 3884 2775 0 5850 3946 3728 4872 
0 2139 2178 4115 5024 4119 5850 0 1909 3451 4131 
0 2914 1783 2376 3847 2478 3946 1909 0 2164 3366 
0 3064 3758 3376 5402 1009 3728 3451 2164 0 1582 
0 2832 5054 4826 6841 2214 4872 4131 3366 1582 0 
EOF